db/inputs/12251321061918625735927237611149532569.smt2
(set-logic QF_FP)
(declare-const x0 (_ FloatingPoint 11 53))
(declare-const x1 (_ FloatingPoint 11 53))
(declare-const x2 (_ FloatingPoint 11 53))
(declare-const x3 (_ FloatingPoint 11 53))
(declare-const x4 (_ FloatingPoint 11 53))
(declare-const x5 (_ FloatingPoint 11 53))
(assert (fp.leq (fp.sub RNE (fp.sub RNE x2 x3) (fp.neg x5)) (fp.add RNE (fp.sub RNE x2 x5) (fp.add RNE x2 x0))))
(assert (fp.leq (fp.add RNE (fp.mul RNE x2 x1) (fp.sub RNE x5 x3)) (fp.div RNE (fp.sub RNE x2 x3) (fp.mul RNE x2 x2))))
(assert (fp.eq (fp.add RNE (fp.sub RNE x0 x2) (fp.mul RNE x3 x4)) (fp.add RNE (fp.sub RNE x5 x0) (fp.div RNE x4 x5))))
(assert (fp.gt (fp.sub RNE (fp.sub RNE x4 x5) (fp.add RNE x3 x1)) (fp.sub RNE (fp.sub RNE x0 x0) (fp.mul RNE x5 x3))))
(assert (fp.lt (fp.add RNE (fp.div RNE x2 x0) (fp.div RNE x2 x0)) (fp.div RNE (fp.add RNE x4 x5) (fp.sub RNE x2 x3))))
(assert (fp.lt (fp.sub RNE (fp.div RNE x4 x2) (fp.sub RNE x2 x1)) (fp.div RNE (fp.neg x2) (fp.mul RNE x3 x4))))
(check-sat)
