db/data/12251321061918625735927237611149532569.z3.out
-------------------
2500.214041633
